NAME : LPS-n26-m4
COMMENT : (Lartu-Peter-Santi Plot, instance 9204 out of 39200. 26 customers.)
TYPE : CVRP
DIMENSION : 26
EDGE_WEIGHT_TYPE : EUC_2D
CAPACITY : 85
NODE_COORD_SECTION
 1 37 87
 2 30 10
 3 33 62
 4 12 56
 5 10 5
 6 10 84
 7 95 34
 8 22 77
 9 95 77
 10 16 82
 11 27 3
 12 31 79
 13 25 60
 14 38 79
 15 9 15
 16 96 14
 17 92 65
 18 57 56
 19 2 6
 20 51 13
 21 81 79
 22 93 52
 23 80 84
 24 57 10
 25 15 54
 26 73 3
DEMAND_SECTION
1 0
2 45
3 62
4 63
5 59
6 49
7 80
8 7
9 55
10 7
11 35
12 29
13 41
14 77
15 26
16 20
17 85
18 78
19 47
20 51
21 17
22 5
23 35
24 11
25 80
26 70
DEPOT_SECTION
 1
 -1
EOF
